(declare-fun var0 () String)
(assert (str.in.re var0 (re.++ (re.union (re.union (str.to.re "?") (str.to.re "@@@")) (re.union (str.to.re "[[") (str.to.re "\\"))) (re.++ (re.union (re.union (str.to.re "<<") (str.to.re "===")) (re.+ (str.to.re ">>"))) (re.++ (re.+ (re.+ (str.to.re ";"))) (re.++ (re.* (re.union (str.to.re "///") (str.to.re ":::"))) (re.++ (re.* (re.+ (str.to.re "..."))) (re.++ (re.* (re.+ (str.to.re "--"))) (re.++ (re.+ (re.* (str.to.re ","))) (re.++ (re.* (re.union (str.to.re "***") (str.to.re "++"))) (re.++ (re.* (re.union (str.to.re "(((") (str.to.re ")))"))) (re.++ (re.+ (re.union (str.to.re "&&&") (str.to.re "'"))) (re.++ (re.union (re.+ (str.to.re "$$")) (re.* (str.to.re "%%%"))) (re.++ (re.+ (re.union (str.to.re """""") (str.to.re "###"))) (re.++ (re.+ (re.+ (str.to.re "!"))) (re.++ (re.+ (re.+ (str.to.re "Z"))) (re.++ (re.+ (re.+ (str.to.re "YYY"))) (re.++ (re.* (re.* (str.to.re "XX"))) (re.++ (re.union (re.* (str.to.re "VV")) (re.+ (str.to.re "W"))) (re.++ (re.* (re.* (str.to.re "UUU"))) (re.++ (re.union (re.+ (str.to.re "S")) (re.+ (str.to.re "T"))) (re.++ (re.union (re.union (str.to.re "PPP") (str.to.re "Q")) (re.* (str.to.re "RRR"))) (re.++ (re.union (re.union (str.to.re "M") (str.to.re "N")) (re.* (str.to.re "OO"))) (re.++ (re.union (re.union (str.to.re "I") (str.to.re "J")) (re.union (str.to.re "K") (str.to.re "LL"))) (re.++ (re.union (re.union (str.to.re "EEE") (str.to.re "FFF")) (re.union (str.to.re "GGG") (str.to.re "HH"))) (re.++ (re.* (re.+ (str.to.re "D"))) (re.++ (re.+ (re.union (str.to.re "BB") (str.to.re "CCC"))) (re.++ (re.+ (re.union (str.to.re "zzz") (str.to.re "AAA"))) (re.++ (re.+ (re.* (str.to.re "yy"))) (re.++ (re.union (re.+ (str.to.re "w")) (re.+ (str.to.re "xx"))) (re.++ (re.* (re.+ (str.to.re "v"))) (re.++ (re.union (re.union (str.to.re "ss") (str.to.re "ttt")) (re.+ (str.to.re "uuu"))) (re.++ (re.* (re.* (str.to.re "rrr"))) (re.++ (re.* (re.* (str.to.re "qqq"))) (re.++ (re.+ (re.+ (str.to.re "p"))) (re.++ (re.union (re.+ (str.to.re "n")) (re.* (str.to.re "ooo"))) (re.++ (re.* (re.* (str.to.re "mm"))) (re.++ (re.* (re.union (str.to.re "kkk") (str.to.re "ll"))) (re.++ (re.union (re.union (str.to.re "hhh") (str.to.re "i")) (re.* (str.to.re "jj"))) (re.++ (re.+ (re.union (str.to.re "fff") (str.to.re "g"))) (re.++ (re.* (re.* (str.to.re "eee"))) (re.++ (re.+ (re.+ (str.to.re "ddd"))) (re.++ (re.union (re.union (str.to.re "9") (str.to.re "aaa")) (re.union (str.to.re "bbb") (str.to.re "c"))) (re.++ (re.* (re.union (str.to.re "777") (str.to.re "8"))) (re.++ (re.union (re.union (str.to.re "333") (str.to.re "444")) (re.union (str.to.re "55") (str.to.re "6"))) (re.++ (re.union (re.union (str.to.re "0") (str.to.re "1")) (re.* (str.to.re "222"))) (re.++ (re.+ (re.union (str.to.re "}}") (str.to.re "~~"))) (re.++ (re.* (re.+ (str.to.re "|||"))) (re.++ (re.+ (re.union (str.to.re "``") (str.to.re "{{{"))) (re.++ (re.union (re.union (str.to.re "]]") (str.to.re "^")) (re.* (str.to.re "_"))) (re.++ (re.union (re.* (str.to.re "@@")) (re.union (str.to.re "[[[") (str.to.re "\\\\\\"))) (re.++ (re.union (re.+ (str.to.re "==")) (re.union (str.to.re ">>>") (str.to.re "?"))) (re.++ (re.+ (re.* (str.to.re "<<<"))) (re.++ (re.+ (re.+ (str.to.re ";;"))) (re.++ (re.+ (re.union (str.to.re "//") (str.to.re ":"))) (re.++ (re.* (re.+ (str.to.re ".."))) (re.++ (re.* (re.* (str.to.re "-"))) (re.++ (re.* (re.* (str.to.re ",,,"))) (re.++ (re.union (re.+ (str.to.re "*")) (re.* (str.to.re "++"))) (re.++ (re.* (re.union (str.to.re "(") (str.to.re ")"))) (re.++ (re.* (re.* (str.to.re "'''"))) (re.++ (re.+ (re.* (str.to.re "&"))) (re.++ (re.+ (re.union (str.to.re "$") (str.to.re "%%"))) (re.++ (re.union (re.union (str.to.re "ZZZ") (str.to.re "!")) (re.union (str.to.re """") (str.to.re "###"))) (re.++ (re.* (re.* (str.to.re "Y"))) (re.++ (re.+ (re.* (str.to.re "XX"))) (re.++ (re.* (re.+ (str.to.re "WW"))) (re.++ (re.union (re.* (str.to.re "U")) (re.* (str.to.re "V"))) (re.++ (re.+ (re.* (str.to.re "TTT"))) (re.++ (re.union (re.+ (str.to.re "R")) (re.+ (str.to.re "S"))) (re.++ (re.+ (re.union (str.to.re "P") (str.to.re "Q"))) (re.++ (re.* (re.* (str.to.re "O"))) (re.++ (re.union (re.* (str.to.re "MMM")) (re.* (str.to.re "NN"))) (re.++ (re.union (re.+ (str.to.re "J")) (re.union (str.to.re "K") (str.to.re "LL"))) (re.++ (re.union (re.union (str.to.re "GGG") (str.to.re "HHH")) (re.* (str.to.re "I"))) (re.++ (re.* (re.union (str.to.re "E") (str.to.re "FFF"))) (re.++ (re.union (re.+ (str.to.re "BB")) (re.union (str.to.re "C") (str.to.re "D"))) (re.++ (re.* (re.* (str.to.re "A"))) (re.++ (re.union (re.+ (str.to.re "x")) (re.union (str.to.re "yyy") (str.to.re "zz"))) (re.++ (re.+ (re.* (str.to.re "w"))) (re.++ (re.union (re.* (str.to.re "uuu")) (re.* (str.to.re "v"))) (re.++ (re.union (re.+ (str.to.re "s")) (re.+ (str.to.re "ttt"))) (re.++ (re.+ (re.* (str.to.re "rrr"))) (re.++ (re.+ (re.union (str.to.re "p") (str.to.re "qq"))) (re.++ (re.union (re.* (str.to.re "n")) (re.+ (str.to.re "o"))) (re.++ (re.* (re.+ (str.to.re "mm"))) (re.++ (re.* (re.* (str.to.re "ll"))) (re.++ (re.* (re.union (str.to.re "jjj") (str.to.re "kk"))) (re.++ (re.* (re.* (str.to.re "i"))) (re.++ (re.union (re.+ (str.to.re "ggg")) (re.* (str.to.re "h"))) (re.++ (re.* (re.* (str.to.re "fff"))) (re.++ (re.union (re.* (str.to.re "dd")) (re.* (str.to.re "eee"))) (re.++ (re.* (re.union (str.to.re "bb") (str.to.re "cc"))) (re.++ (re.union (re.+ (str.to.re "9")) (re.* (str.to.re "aaa"))) (re.++ (re.* (re.* (str.to.re "8"))) (re.++ (re.union (re.* (str.to.re "6")) (re.* (str.to.re "77"))) (re.++ (re.+ (re.* (str.to.re "555"))) (re.++ (re.+ (re.union (str.to.re "333") (str.to.re "44"))) (re.++ (re.+ (re.+ (str.to.re "2"))) (re.++ (re.* (re.+ (str.to.re "111"))) (re.* (re.* (str.to.re "00")))))))))))))))))))))))))))))))))))))))))))))))))))))))))))))))))))))))))))))))))))))))))))))))))))))))
(check-sat)